
Gurobi 9.0.3 (win64) logging started Sun Jan  2 23:06:10 2022

Changed value of parameter LogFile to Results/sslp2_50_40_200_var_BendersBnC.log
   Prev:   Default: 
Changed value of parameter Heuristics to 0.0
   Prev: 0.05  Min: 0.0  Max: 1.0  Default: 0.05
Changed value of parameter lazyConstraints to 1
   Prev: 0  Min: 0  Max: 1  Default: 0
Changed value of parameter timeLimit to 7167.082679748535
   Prev: inf  Min: 0.0  Max: inf  Default: inf
Gurobi Optimizer version 9.0.3 build v9.0.3rc0 (win64)
Optimize a model with 3216 rows, 300 columns and 233066 nonzeros
Model fingerprint: 0xf4dc358f
Variable types: 250 continuous, 50 integer (50 binary)
Coefficient statistics:
  Matrix range     [1e-13, 4e+05]
  Objective range  [5e-03, 4e+01]
  Bounds range     [1e+00, 1e+00]
  RHS range        [9e-16, 6e+03]
Warning: Model contains large matrix coefficient range
         Consider reformulating model or setting NumericFocus parameter
         to avoid numerical issues.
Presolve added 0 rows and 76 columns
Presolve removed 684 rows and 0 columns
Presolve time: 0.18s
Presolved: 2532 rows, 376 columns, 127586 nonzeros
Variable types: 325 continuous, 51 integer (50 binary)

Root relaxation: objective -4.469800e+02, 857 iterations, 0.23 seconds

    Nodes    |    Current Node    |     Objective Bounds      |     Work
 Expl Unexpl |  Obj  Depth IntInf | Incumbent    BestBd   Gap | It/Node Time

     0     0 -446.97997    0   32          - -446.97997      -     -    0s
     0     0 -445.78099    0   24          - -445.78099      -     -    0s
     0     0 -445.54046    0   23          - -445.54046      -     -    0s
     0     0 -445.50185    0   23          - -445.50185      -     -    0s
     0     0 -445.49254    0   23          - -445.49254      -     -    0s
     0     0 -445.48084    0   22          - -445.48084      -     -    0s
     0     0 -445.47401    0   22          - -445.47401      -     -    0s
     0     0 -445.47287    0   22          - -445.47287      -     -    0s
     0     0 -445.10958    0   24          - -445.10958      -     -    1s
     0     0 -444.96819    0   22          - -444.96819      -     -    1s
     0     0 -444.90854    0   24          - -444.90854      -     -    1s
     0     0 -444.86730    0   22          - -444.86730      -     -    1s
     0     0 -444.81488    0   24          - -444.81488      -     -    1s
     0     0 -444.79163    0   23          - -444.79163      -     -    1s
     0     0 -444.74070    0   26          - -444.74070      -     -    1s
     0     0 -444.70352    0   27          - -444.70352      -     -    1s
     0     0 -444.67614    0   26          - -444.67614      -     -    1s
     0     0 -444.66392    0   25          - -444.66392      -     -    1s
     0     0 -444.65813    0   25          - -444.65813      -     -    1s
     0     0 -444.64507    0   26          - -444.64507      -     -    1s
     0     0 -444.63366    0   26          - -444.63366      -     -    1s
     0     0 -444.62399    0   26          - -444.62399      -     -    1s
     0     0 -444.62105    0   26          - -444.62105      -     -    1s
     0     0 -444.61435    0   24          - -444.61435      -     -    1s
     0     0 -444.61132    0   24          - -444.61132      -     -    1s
     0     0 -444.60915    0   24          - -444.60915      -     -    1s
     0     0 -444.60791    0   23          - -444.60791      -     -    1s
     0     0 -444.60626    0   26          - -444.60626      -     -    1s
     0     0 -444.60332    0   24          - -444.60332      -     -    1s
     0     0 -444.60243    0   25          - -444.60243      -     -    1s
     0     0 -444.60171    0   25          - -444.60171      -     -    1s
     0     0 -444.60001    0   25          - -444.60001      -     -    1s
     0     0 -444.59922    0   25          - -444.59922      -     -    1s
     0     0 -444.59793    0   24          - -444.59793      -     -    1s
     0     0 -444.59741    0   26          - -444.59741      -     -    2s
     0     0 -444.59709    0   25          - -444.59709      -     -    2s
     0     0 -444.49405    0   23          - -444.49405      -     -    2s
     0     0 -444.41295    0   22          - -444.41295      -     -    2s
     0     0 -444.37534    0   23          - -444.37534      -     -    2s
     0     0 -444.35499    0   24          - -444.35499      -     -    2s
     0     0 -444.34908    0   23          - -444.34908      -     -    2s
     0     0 -444.33143    0   24          - -444.33143      -     -    2s
     0     0 -444.32837    0   23          - -444.32837      -     -    2s
     0     0 -444.32666    0   24          - -444.32666      -     -    2s
     0     0 -444.31881    0   24          - -444.31881      -     -    2s
     0     0 -444.31814    0   24          - -444.31814      -     -    2s
     0     0 -444.31744    0   24          - -444.31744      -     -    2s
     0     0 -444.31496    0   24          - -444.31496      -     -    2s
     0     0 -444.31289    0   24          - -444.31289      -     -    2s
     0     0 -444.31219    0   23          - -444.31219      -     -    2s
     0     0 -444.31214    0   23          - -444.31214      -     -    2s
     0     0 -444.23282    0   23          - -444.23282      -     -    2s
     0     0 -444.20464    0   23          - -444.20464      -     -    3s
     0     0 -444.19350    0   24          - -444.19350      -     -    3s
     0     0 -444.18513    0   23          - -444.18513      -     -    3s
     0     0 -444.18232    0   22          - -444.18232      -     -    3s
     0     0 -444.17659    0   22          - -444.17659      -     -    3s
     0     0 -444.17343    0   21          - -444.17343      -     -    3s
     0     0 -444.17071    0   22          - -444.17071      -     -    3s
     0     0 -444.16931    0   22          - -444.16931      -     -    3s
     0     0 -444.16683    0   22          - -444.16683      -     -    3s
     0     0 -444.16484    0   22          - -444.16484      -     -    3s
     0     0 -444.16345    0   21          - -444.16345      -     -    3s
     0     0 -444.16278    0   22          - -444.16278      -     -    3s
     0     0 -444.11518    0   22          - -444.11518      -     -    3s
     0     0 -444.08710    0   24          - -444.08710      -     -    3s
     0     0 -444.07777    0   25          - -444.07777      -     -    3s
     0     0 -444.07443    0   24          - -444.07443      -     -    3s
     0     0 -444.07223    0   25          - -444.07223      -     -    3s
     0     0 -444.06786    0   25          - -444.06786      -     -    3s
     0     0 -444.06577    0   24          - -444.06577      -     -    3s
     0     0 -444.06368    0   25          - -444.06368      -     -    3s
     0     0 -444.06284    0   25          - -444.06284      -     -    3s
     0     0 -444.06186    0   25          - -444.06186      -     -    3s
     0     0 -444.06082    0   25          - -444.06082      -     -    3s
     0     0 -444.05960    0   25          - -444.05960      -     -    3s
     0     0 -444.05940    0   25          - -444.05940      -     -    3s
     0     0 -444.03355    0   22          - -444.03355      -     -    4s
     0     0 -444.02177    0   22          - -444.02177      -     -    4s
     0     0 -444.01647    0   23          - -444.01647      -     -    4s
     0     0 -444.01153    0   23          - -444.01153      -     -    4s
     0     0 -444.00748    0   24          - -444.00748      -     -    4s
     0     0 -444.00560    0   23          - -444.00560      -     -    4s
     0     0 -444.00192    0   24          - -444.00192      -     -    4s
     0     0 -444.00168    0   24          - -444.00168      -     -    4s
     0     0 -443.98930    0   24          - -443.98930      -     -    4s
     0     0 -443.97660    0   23          - -443.97660      -     -    4s
     0     0 -443.96270    0   23          - -443.96270      -     -    4s
     0     0 -443.95629    0   23          - -443.95629      -     -    4s
     0     0 -443.94932    0   24          - -443.94932      -     -    4s
     0     0 -443.94777    0   23          - -443.94777      -     -    4s
     0     0 -443.94663    0   23          - -443.94663      -     -    4s
     0     0 -443.94545    0   24          - -443.94545      -     -    4s
     0     0 -443.94454    0   24          - -443.94454      -     -    4s
     0     0 -443.94231    0   22          - -443.94231      -     -    4s
     0     0 -443.94124    0   23          - -443.94124      -     -    4s
     0     0 -443.94101    0   22          - -443.94101      -     -    4s
     0     0 -443.93281    0   25          - -443.93281      -     -    4s
     0     0 -443.92271    0   24          - -443.92271      -     -    4s
     0     0 -443.91897    0   25          - -443.91897      -     -    4s
     0     0 -443.91714    0   25          - -443.91714      -     -    4s
     0     0 -443.91363    0   25          - -443.91363      -     -    5s
     0     0 -443.91214    0   24          - -443.91214      -     -    5s
     0     0 -443.91016    0   25          - -443.91016      -     -    5s
     0     0 -443.90906    0   24          - -443.90906      -     -    5s
     0     0 -443.90882    0   24          - -443.90882      -     -    5s
     0     0 -443.90267    0   22          - -443.90267      -     -    5s
     0     0 -443.90175    0   22          - -443.90175      -     -    5s
     0     0 -443.90101    0   22          - -443.90101      -     -    5s
     0     0 -443.89232    0   24          - -443.89232      -     -    5s
     0     0 -443.88305    0   23          - -443.88305      -     -    5s
     0     0 -443.87798    0   25          - -443.87798      -     -    5s
     0     0 -443.87310    0   24          - -443.87310      -     -    5s
     0     0 -443.86934    0   24          - -443.86934      -     -    5s
     0     0 -443.86496    0   24          - -443.86496      -     -    5s
     0     0 -443.86426    0   23          - -443.86426      -     -    5s
     0     0 -443.85433    0   23          - -443.85433      -     -    5s
     0     0 -443.84551    0   26          - -443.84551      -     -    5s
     0     0 -443.84263    0   26          - -443.84263      -     -    5s
     0     0 -443.84021    0   26          - -443.84021      -     -    6s
     0     0 -443.83859    0   26          - -443.83859      -     -    6s
     0     0 -443.83757    0   26          - -443.83757      -     -    6s
     0     0 -443.83685    0   27          - -443.83685      -     -    6s
     0     0 -443.82655    0   24          - -443.82655      -     -    6s
     0     0 -443.81774    0   24          - -443.81774      -     -    6s
     0     0 -443.81570    0   24          - -443.81570      -     -    6s
     0     0 -443.81317    0   24          - -443.81317      -     -    6s
     0     0 -443.81143    0   25          - -443.81143      -     -    6s
     0     0 -443.81006    0   26          - -443.81006      -     -    6s
     0     0 -443.80934    0   25          - -443.80934      -     -    6s
     0     0 -443.79701    0   24          - -443.79701      -     -    6s
     0     0 -443.79012    0   25          - -443.79012      -     -    6s
     0     0 -443.78602    0   23          - -443.78602      -     -    6s
     0     0 -443.78447    0   24          - -443.78447      -     -    6s
     0     0 -443.78373    0   23          - -443.78373      -     -    6s
     0     0 -443.77545    0   23          - -443.77545      -     -    6s
     0     0 -443.77208    0   23          - -443.77208      -     -    7s
     0     0 -443.77007    0   23          - -443.77007      -     -    7s
     0     0 -443.76938    0   23          - -443.76938      -     -    7s
     0     0 -443.76362    0   22          - -443.76362      -     -    7s
     0     0 -443.75885    0   23          - -443.75885      -     -    7s
     0     0 -443.75603    0   24          - -443.75603      -     -    7s
     0     0 -443.75511    0   24          - -443.75511      -     -    7s
     0     0 -443.74035    0   23          - -443.74035      -     -    7s
     0     0 -443.71375    0   25          - -443.71375      -     -    7s
     0     0 -443.70094    0   23          - -443.70094      -     -    7s
     0     0 -443.69763    0   25          - -443.69763      -     -    7s
     0     0 -443.69356    0   25          - -443.69356      -     -    7s
     0     0 -443.69216    0   26          - -443.69216      -     -    7s
     0     0 -443.69152    0   26          - -443.69152      -     -    7s
     0     0 -443.68689    0   24          - -443.68689      -     -    7s
     0     0 -443.67246    0   23          - -443.67246      -     -    7s
     0     0 -443.66526    0   24          - -443.66526      -     -    7s
     0     0 -443.66315    0   24          - -443.66315      -     -    8s
     0     0 -443.65983    0   24          - -443.65983      -     -    8s
     0     0 -443.65728    0   24          - -443.65728      -     -    8s
     0     0 -443.65551    0   25          - -443.65551      -     -    8s
     0     0 -443.65117    0   24          - -443.65117      -     -    8s
     0     0 -443.64925    0   24          - -443.64925      -     -    8s
     0     0 -443.64784    0   24          - -443.64784      -     -    8s
     0     0 -443.64652    0   24          - -443.64652      -     -    8s
     0     0 -443.64494    0   25          - -443.64494      -     -    8s
     0     0 -443.64308    0   25          - -443.64308      -     -    8s
     0     0 -443.64124    0   24          - -443.64124      -     -    8s
     0     0 -443.64041    0   24          - -443.64041      -     -    8s
     0     0 -443.63437    0   24          - -443.63437      -     -    8s
     0     0 -443.63105    0   25          - -443.63105      -     -    8s
     0     0 -443.62853    0   24          - -443.62853      -     -    8s
     0     0 -443.62810    0   25          - -443.62810      -     -    8s
     0     0 -443.62747    0   24          - -443.62747      -     -    8s
     0     0 -443.62620    0   24          - -443.62620      -     -    8s
     0     0 -443.62330    0   24          - -443.62330      -     -    8s
     0     0 -443.62250    0   25          - -443.62250      -     -    8s
     0     0 -443.61393    0   23          - -443.61393      -     -    9s
     0     0 -443.61067    0   24          - -443.61067      -     -    9s
     0     0 -443.60896    0   26          - -443.60896      -     -    9s
     0     0 -443.60785    0   25          - -443.60785      -     -    9s
     0     0 -443.60772    0   26          - -443.60772      -     -    9s
     0     0 -443.60361    0   23          - -443.60361      -     -    9s
     0     0 -443.60162    0   23          - -443.60162      -     -    9s
     0     0 -443.60050    0   23          - -443.60050      -     -    9s
     0     0 -443.59986    0   21          - -443.59986      -     -    9s
     0     0 -443.58595    0   24          - -443.58595      -     -    9s
     0     0 -443.57523    0   24          - -443.57523      -     -    9s
     0     0 -443.56718    0   22          - -443.56718      -     -    9s
     0     0 -443.56171    0   25          - -443.56171      -     -    9s
     0     0 -443.55669    0   23          - -443.55669      -     -    9s
     0     0 -443.55567    0   24          - -443.55567      -     -    9s
     0     0 -443.55526    0   24          - -443.55526      -     -    9s
     0     0 -443.54729    0   24          - -443.54729      -     -   10s
     0     0 -443.54450    0   24          - -443.54450      -     -   10s
     0     0 -443.54192    0   25          - -443.54192      -     -   10s
     0     0 -443.54047    0   25          - -443.54047      -     -   10s
     0     0 -443.53869    0   24          - -443.53869      -     -   10s
     0     0 -443.53582    0   23          - -443.53582      -     -   10s
     0     0 -443.53545    0   24          - -443.53545      -     -   10s
     0     0 -443.53181    0   24          - -443.53181      -     -   10s
     0     0 -443.53055    0   24          - -443.53055      -     -   10s
     0     0 -443.52854    0   23          - -443.52854      -     -   10s
     0     0 -443.52779    0   23          - -443.52779      -     -   10s
     0     0 -443.52655    0   23          - -443.52655      -     -   10s
     0     0 -443.52564    0   24          - -443.52564      -     -   10s
     0     0 -443.52504    0   23          - -443.52504      -     -   10s
     0     0 -443.52504    0   23          - -443.52504      -     -   10s
     0     2 -443.52504    0   23          - -443.52504      -     -   10s
*   88    87              50    -232.5640443 -443.52421  90.7%  71.6   14s
    92    89 -422.90805   50    - -232.56404 -443.52421  90.7%  70.5   16s
*  101    94              50    -279.7049925 -443.52421  58.6%  72.5   21s
*  103    94              50    -285.8049922 -443.52421  55.2%  74.0   23s
   118   105 -393.19170   49    2 -285.80499 -443.52421  55.2%  75.8   26s
*  120   106              50    -305.0999921 -443.52421  45.4%  76.3   28s
   128   111 -441.65804    3    8 -305.09999 -443.43244  45.3%  79.1   30s
   211   193 -420.90423   49    2 -305.09999 -443.43244  45.3%  69.5   40s
   231   191 -414.49936   48    2 -305.09999 -443.24599  45.3%  69.8   46s
   251   193 -389.18643   50    - -305.09999 -443.04723  45.2%  72.2   57s
   257   196     cutoff   50      -305.09999 -443.01931  45.2%  73.7   60s
*  262   197              50    -310.7899916 -443.01931  42.5%  74.4   62s
   268   197     cutoff   50      -310.78999 -442.95000  42.5%  75.3   66s
   335   263 -433.59204   38    8 -310.78999 -442.86375  42.5%  73.7   71s
   358   273 -421.70838   47    2 -310.78999 -442.86375  42.5%  72.2   77s
   369   276 -431.96363   48    2 -310.78999 -442.86375  42.5%  72.4   83s
   377   278 -391.15242   49    2 -310.78999 -442.86375  42.5%  72.4   86s
   395   278     cutoff   50      -310.78999 -441.93958  42.2%  75.3   92s
   414   301     cutoff   50      -310.78999 -441.93871  42.2%  74.5  104s
   441   311     cutoff   50      -310.78999 -441.82571  42.2%  72.5  109s
   457   313 -438.28553    4    - -310.78999 -441.82571  42.2%  71.6  116s
   466   317 -421.27686    6    8 -310.78999 -441.82571  42.2%  72.1  120s
   478   322 -420.06115   10    6 -310.78999 -441.82571  42.2%  72.4  125s
   502   347 -395.61091   20    1 -310.78999 -441.75402  42.1%  71.1  131s
   524   394 -369.79088   24    2 -310.78999 -441.75402  42.1%  69.5  140s
*  583   400              50    -322.1199918 -441.64981  37.1%  64.7  149s
   587   398 -329.94054   52    2 -322.11999 -441.64367  37.1%  64.6  152s
   603   401 -432.33042   11    - -322.11999 -441.64367  37.1%  64.9  161s
*  608   402              50    -324.7999911 -441.64367  36.0%  65.2  163s
   613   403 -415.16285   12    2 -324.79999 -441.64367  36.0%  65.7  165s
   625   416 -414.30615   16    - -324.79999 -441.64367  36.0%  65.8  171s
   640   421 -409.82466   20    2 -324.79999 -441.64367  36.0%  65.5  175s
   673   450 -409.69784   22    2 -324.79999 -441.64367  36.0%  63.8  194s
   697   473 -407.70358   26    7 -324.79999 -441.64367  36.0%  62.6  199s
   732   482 -407.37540   28    3 -324.79999 -441.64367  36.0%  60.7  209s
   744   486 -377.34067   32    - -324.79999 -441.64367  36.0%  60.5  215s
   752   487 -354.54493   32    - -324.79999 -441.64367  36.0%  60.5  220s
   765   513 -377.71992   36    2 -324.79999 -441.64367  36.0%  60.5  230s
   830   536 -347.89253   39    2 -324.79999 -441.51799  35.9%  57.1  237s
   851   573 -437.22265   10    3 -324.79999 -441.51799  35.9%  56.7  241s
   894   567 -411.41577   44    - -324.79999 -441.51799  35.9%  55.4  247s
   903   574     cutoff   50      -324.79999 -441.51799  35.9%  55.9  252s
   910   580 -367.59986   47    2 -324.79999 -441.51799  35.9%  56.1  258s
   919   583     cutoff   50      -324.79999 -441.51799  35.9%  56.2  262s
   925   584 -382.92550   47    2 -324.79999 -441.51799  35.9%  56.2  265s
   937   597 -362.38854   48    2 -324.79999 -441.45726  35.9%  56.6  272s
   960   616     cutoff   50      -324.79999 -441.45422  35.9%  56.2  278s
   980   618 -437.08793    7    - -324.79999 -441.43483  35.9%  55.9  281s
  1000   664 -433.48087   12    4 -324.79999 -441.43483  35.9%  55.5  294s
  1040   666 -382.53707   43    2 -324.79999 -441.43483  35.9%  54.1  297s
  1057   669     cutoff   50      -324.79999 -441.41182  35.9%  53.9  307s
* 1058   668              50    -332.1549909 -441.41182  32.9%  54.0  308s
  1065   671 -375.34517   48    2 -332.15499 -441.39598  32.9%  54.0  313s
  1073   669     cutoff   50      -332.15499 -441.34988  32.9%  54.1  320s
  1089   681 -436.28410   13    2 -332.15499 -441.31966  32.9%  54.2  325s
  1106   738 -436.22251   14    2 -332.15499 -441.31966  32.9%  53.9  333s
  1177   747 -410.71560   47    - -332.15499 -441.31966  32.9%  52.2  340s
  1183   747     cutoff   50      -332.15499 -441.30826  32.9%  52.3  346s
  1193   750 -406.35951   50    - -332.15499 -441.30037  32.9%  52.3  351s
  1203   749     cutoff   50      -332.15499 -441.27868  32.9%  52.6  357s
  1214   754 -435.62545   19    8 -332.15499 -441.27311  32.9%  53.3  362s
  1226   763 -433.44713   27    9 -332.15499 -441.27311  32.9%  53.6  365s
  1250   785 -429.86780   43    5 -332.15499 -441.27311  32.9%  53.9  372s
  1260   789 -410.91370   18    - -332.15499 -441.27311  32.9%  54.0  380s
  1280   792     cutoff   50      -332.15499 -441.24735  32.8%  54.5  395s
  1291   797     cutoff   50      -332.15499 -441.22986  32.8%  54.8  403s
  1305   834 -435.79249    8    6 -332.15499 -441.22986  32.8%  54.7  412s
  1347   849 -435.78337   38    2 -332.15499 -441.22986  32.8%  53.6  423s
  1382   846 -417.96723   48    3 -332.15499 -441.18137  32.8%  52.9  427s
  1391   850     cutoff   44      -332.15499 -441.12155  32.8%  53.0  431s
  1399   849     cutoff   50      -332.15499 -441.11869  32.8%  53.1  437s
  1413   866 -366.53267   50    - -332.15499 -441.08477  32.8%  53.6  446s
  1434   889     cutoff   50      -332.15499 -441.08394  32.8%  53.5  453s
  1469   893 -436.06743   26   23 -332.15499 -441.08351  32.8%  53.2  484s
  1471   894 -436.36596   13   32 -332.15499 -441.08351  32.8%  53.1  568s
  1472   895 -437.71909   32   24 -332.15499 -441.08351  32.8%  53.1  579s
  1473   896 -438.06849   20   24 -332.15499 -441.08351  32.8%  53.0  583s
  1474   896 -436.61199   17   22 -332.15499 -441.08351  32.8%  53.0  585s
  1476   898 -433.53004   42   21 -332.15499 -441.08351  32.8%  52.9  590s
  1479   900 -430.78953   21   22 -332.15499 -441.08351  32.8%  52.8  595s
  1482   902 -436.69857   27   25 -332.15499 -441.08351  32.8%  52.7  601s
  1484   903 -436.23982    7   25 -332.15499 -441.08351  32.8%  52.6  605s
  1485   904 -432.19969   36   26 -332.15499 -441.08351  32.8%  52.6  612s
  1486   904 -437.19244   39   23 -332.15499 -441.08351  32.8%  52.6  620s
  1489   906 -403.48708    7   22 -332.15499 -441.08351  32.8%  52.5  626s
  1492   908 -420.41073    6   21 -332.15499 -441.08351  32.8%  52.4  631s
  1494   910 -352.73841   34   21 -332.15499 -441.08351  32.8%  52.3  638s
  1495   910 -430.81785   39   21 -332.15499 -441.08351  32.8%  52.2  646s
  1496   911 -431.64966   29   22 -332.15499 -441.08351  32.8%  52.2  653s
  1497   912 -422.28280   42   23 -332.15499 -441.08351  32.8%  52.2  661s
  1499   913 -421.98414   47   23 -332.15499 -441.08351  32.8%  52.1  670s
  1500   914 -361.23236   39   21 -332.15499 -441.08351  32.8%  52.1  677s
  1501   914 -437.83131    6   24 -332.15499 -441.08351  32.8%  52.0  684s
  1502   915 -432.49193   29   22 -332.15499 -441.08351  32.8%  52.0  693s
  1503   916 -418.04611   18   23 -332.15499 -441.08351  32.8%  52.0  695s
  1506   918 -433.97106   34   23 -332.15499 -441.08351  32.8%  51.9  700s
  1507   918 -433.71283   37   24 -332.15499 -441.08351  32.8%  51.8  708s
  1508   919 -360.61252   27   24 -332.15499 -441.08351  32.8%  51.8  717s
  1510   920 -420.81105   42   24 -332.15499 -441.08351  32.8%  51.7  726s
  1511   921 -422.73500   39   22 -332.15499 -441.08351  32.8%  51.7  734s
  1512   922 -438.55317   29   22 -332.15499 -441.08351  32.8%  51.7  736s
  1513   922 -430.05128   43   22 -332.15499 -441.08351  32.8%  51.6  743s
  1514   923 -391.37578   49   24 -332.15499 -441.08351  32.8%  51.6  751s
  1516   924 -437.58893   43   23 -332.15499 -441.08351  32.8%  51.5  760s
  1517   925 -436.19552   37   24 -332.15499 -441.08351  32.8%  51.5  769s
  1518   926 -338.28778   48   24 -332.15499 -441.08351  32.8%  51.5  771s
  1519   926 -438.29184   19   24 -332.15499 -441.08351  32.8%  51.4  778s
  1520   927 -381.47106   32   24 -332.15499 -441.08351  32.8%  51.4  785s
  1521   928 -425.46673   38   25 -332.15499 -441.08351  32.8%  51.4  793s
  1522   928 -410.39982   48   25 -332.15499 -441.08351  32.8%  51.3  815s
  1523   929 -437.11287   20   25 -332.15499 -441.08351  32.8%  51.3  822s
  1525   933 -441.08351   12   20 -332.15499 -441.08351  32.8%  54.9  849s
  1527   935 -441.08351   13   19 -332.15499 -441.08351  32.8%  55.1  865s
  1529   934 -336.52649   13    - -332.15499 -441.08351  32.8%  55.4  874s
  1531   934     cutoff   13      -332.15499 -441.08351  32.8%  55.5  886s
  1533   936 -441.08351   14   20 -332.15499 -441.08351  32.8%  55.6  899s
  1535   936     cutoff   14      -332.15499 -441.08351  32.8%  55.9  912s
  1538   937     cutoff   15      -332.15499 -441.08351  32.8%  56.2  919s
  1542   937     cutoff   16      -332.15499 -441.08351  32.8%  56.5  923s
  1545   937 -339.53630   17    - -332.15499 -441.08351  32.8%  56.9  927s
  1548   938     cutoff   17      -332.15499 -441.08351  32.8%  57.0  931s
  1555   939 -441.08351   19   19 -332.15499 -441.08351  32.8%  57.4  940s
  1560   939     cutoff   19      -332.15499 -441.08351  32.8%  57.5  945s
  1565   941     cutoff   20      -332.15499 -441.08351  32.8%  57.9  952s
  1572   941     cutoff   21      -332.15499 -441.08351  32.8%  58.3  961s
  1577   945     cutoff   22      -332.15499 -441.08351  32.8%  58.5  968s
  1584   944     cutoff   23      -332.15499 -441.08351  32.8%  58.8  972s
  1591   945     cutoff   24      -332.15499 -441.08351  32.8%  59.1  979s
  1598   948 -435.69658   25    - -332.15499 -441.08351  32.8%  59.3  987s
  1606   948     cutoff   26      -332.15499 -441.08351  32.8%  59.6  994s
  1617   952     cutoff   27      -332.15499 -441.08351  32.8%  59.8 1004s
  1619   951 -430.04990   40    - -332.15499 -441.08351  32.8%  59.9 1005s
  1624   952     cutoff   28      -332.15499 -441.08351  32.8%  60.2 1011s
  1628   951     cutoff   29      -332.15499 -441.08351  32.8%  60.5 1015s
  1634   953 -441.08351   31   14 -332.15499 -441.08351  32.8%  60.8 1020s
  1640   952     cutoff   32      -332.15499 -440.83882  32.7%  61.2 1025s
  1655   960 -440.74325   34   11 -332.15499 -440.74325  32.7%  61.4 1037s
  1673   960 -439.95212   36   11 -332.15499 -439.95212  32.5%  61.6 1046s
  1692   967 -439.67599   38    9 -332.15499 -439.67599  32.4%  61.8 1060s
  1712   977 -439.44141   40    8 -332.15499 -439.63987  32.4%  62.0 1069s
  1716   977 -438.37156   24    8 -332.15499 -439.63987  32.4%  62.5 1070s
  1755   988     cutoff   44      -332.15499 -439.63987  32.4%  62.5 1081s
  1777   986     cutoff   46      -332.15499 -439.63987  32.4%  63.1 1100s
  1806   995     cutoff   50      -332.15499 -439.63987  32.4%  64.1 1115s
  1846   998     cutoff   58      -332.15499 -439.52580  32.3%  65.1 1127s
  1868  1014     cutoff   61      -332.15499 -439.47756  32.3%  65.7 1140s
  1896  1021 -435.38467   28   10 -332.15499 -439.47756  32.3%  65.7 1147s
  1920  1028 -433.80826   38    7 -332.15499 -439.47756  32.3%  65.7 1160s
  1941  1034 -431.76008   48    6 -332.15499 -439.30907  32.3%  65.9 1170s
  1966  1045 -437.29835   24    9 -332.15499 -439.09143  32.2%  66.2 1181s
  1981  1060 -435.28673   30    8 -332.15499 -439.09143  32.2%  66.4 1186s
  2017  1063 -433.37427   35    2 -332.15499 -439.09143  32.2%  66.5 1205s
  2052  1079 -432.77658   42    8 -332.15499 -439.09143  32.2%  66.7 1225s
  2084  1088     cutoff   52      -332.15499 -438.69297  32.1%  66.7 1241s
  2114  1087     cutoff   62      -332.15499 -438.63493  32.1%  67.2 1253s
  2136  1090     cutoff   62      -332.15499 -438.58688  32.0%  67.3 1265s
  2162  1107     cutoff   63      -332.15499 -438.38485  32.0%  67.8 1278s
  2189  1127 -430.74867   32    7 -332.15499 -438.37558  32.0%  68.0 1286s
  2230  1140 -403.45687   43    5 -332.15499 -438.35054  32.0%  67.9 1305s
  2281  1145 -403.27751   49    3 -332.15499 -438.21928  31.9%  67.8 1336s
  2298  1145     cutoff   63      -332.15499 -438.11836  31.9%  68.0 1342s
  2321  1163     cutoff   54      -332.15499 -438.07495  31.9%  68.0 1359s
  2343  1159 -368.61259   63    2 -332.15499 -438.02254  31.9%  68.0 1363s
  2356  1171 -340.79435   56    2 -332.15499 -438.02140  31.9%  68.0 1375s
  2390  1194 -338.97735   59    2 -332.15499 -437.96774  31.9%  68.3 1394s
  2418  1188 -410.77131   43    5 -332.15499 -437.94710  31.9%  68.2 1398s
  2443  1219     cutoff   64      -332.15499 -437.90887  31.8%  68.2 1421s
  2508  1220 -391.02628   32    2 -332.15499 -437.83172  31.8%  67.9 1455s
  2553  1229 -418.79037   21    2 -332.15499 -437.81358  31.8%  68.1 1485s
  2585  1242     cutoff   20      -332.15499 -437.75684  31.8%  68.3 1514s
  2654  1239 -413.64588   35    3 -332.15499 -437.68580  31.8%  68.0 1566s
  2676  1244 -355.58029   56    3 -332.15499 -437.63045  31.8%  68.5 1581s
  2711  1256     cutoff   37      -332.15499 -437.63045  31.8%  68.6 1619s
  2743  1257     cutoff   60      -332.15499 -437.63045  31.8%  68.5 1636s
  2773  1256 -382.05528   44    2 -332.15499 -437.61097  31.7%  68.4 1668s
  2828  1265 -351.04346   56    2 -332.15499 -437.55302  31.7%  68.7 1718s
  2872  1277     cutoff   64      -332.15499 -437.43312  31.7%  68.9 1759s
  2936  1302 -377.19017   57    2 -332.15499 -437.31596  31.7%  69.0 1799s
  2959  1298 -389.65031   62    2 -332.15499 -437.30539  31.7%  69.1 1805s
  2980  1302 -367.07114   63    2 -332.15499 -437.29867  31.7%  69.0 1826s
  3025  1308     cutoff   64      -332.15499 -437.25613  31.6%  69.1 1868s
  3056  1309 -359.50323   63    2 -332.15499 -437.13103  31.6%  69.0 1884s
  3075  1329 -418.33094   26    7 -332.15499 -437.13103  31.6%  69.2 1902s
  3126  1350 -406.64985   50    - -332.15499 -437.10297  31.6%  69.3 1933s
  3165  1351 -430.86512   30    5 -332.15499 -437.10297  31.6%  69.2 1950s
  3188  1370 -382.39907   61    2 -332.15499 -437.00084  31.6%  69.1 1974s
  3251  1386 -373.02852   63    2 -332.15499 -436.93752  31.5%  69.2 2018s
  3272  1381 -349.30542   61    2 -332.15499 -436.87371  31.5%  69.2 2021s
  3308  1395     cutoff   64      -332.15499 -436.85623  31.5%  69.2 2056s
  3335  1428     cutoff   64      -332.15499 -436.85237  31.5%  69.4 2079s
  3404  1425 -356.63810   62    2 -332.15499 -436.77659  31.5%  69.4 2128s
  3464  1442     cutoff   22      -332.15499 -436.67470  31.5%  69.7 2180s
  3520  1467 -372.11242   35    2 -332.15499 -436.64583  31.5%  69.4 2220s
  3555  1463 -366.20730   63    2 -332.15499 -436.57372  31.4%  69.4 2228s
  3578  1478 -410.63063   47    6 -332.15499 -436.56335  31.4%  69.6 2264s
  3612  1477     cutoff   28      -332.15499 -436.52409  31.4%  69.5 2279s
  3647  1517 -349.85117   55    2 -332.15499 -436.45779  31.4%  69.6 2333s
  3722  1543     cutoff   64      -332.15499 -436.43355  31.4%  69.1 2383s
  3795  1552 -408.04610   53    3 -332.15499 -436.30402  31.4%  69.1 2450s
  3827  1550 -378.07062   50    2 -332.15499 -436.16908  31.3%  69.3 2463s
  3877  1563     cutoff   61      -332.15499 -436.15188  31.3%  69.0 2527s
  3920  1588     cutoff   63      -332.15499 -436.11845  31.3%  69.1 2578s
  3939  1588 -371.44675   61    2 -332.15499 -436.08266  31.3%  69.3 2587s
  3989  1621     cutoff   30      -332.15499 -436.04762  31.3%  69.1 2641s
  4048  1615     cutoff   30      -332.15499 -436.01536  31.3%  68.9 2663s
  4094  1645 -377.70951   58    2 -332.15499 -435.94434  31.2%  68.8 2727s
  4132  1637 -354.60195   53    2 -332.15499 -435.88739  31.2%  68.6 2734s
  4164  1656     cutoff   64      -332.15499 -435.86116  31.2%  68.8 2787s
  4200  1649     cutoff   58      -332.15499 -435.83978  31.2%  68.8 2795s
  4248  1688 -339.92030   63    2 -332.15499 -435.81235  31.2%  68.6 2864s
  4343  1748 -384.94363   43    2 -332.15499 -435.69658  31.2%  68.5 2938s
  4408  1759     cutoff   63      -332.15499 -435.67060  31.2%  68.2 2955s
  4450  1817 -373.78030   61    2 -332.15499 -435.65830  31.2%  68.2 3014s
  4503  1827 -384.44565   50    3 -332.15499 -435.65817  31.2%  68.1 3028s
  4560  1863     cutoff   64      -332.15499 -435.62503  31.2%  67.9 3094s
  4602  1873     cutoff   64      -332.15499 -435.55519  31.1%  68.0 3110s
  4637  1924     cutoff   40      -332.15499 -435.55062  31.1%  68.1 3177s
  4699  1983 -426.75420   53    5 -332.15499 -435.53585  31.1%  68.0 3224s
  4806  2033 -368.11041   61    2 -332.15499 -435.50516  31.1%  67.8 3310s
  4861  2048 -372.56250   63    - -332.15499 -435.49820  31.1%  67.7 3333s
  4910  2096 -360.59432   63    2 -332.15499 -435.45425  31.1%  67.9 3405s
  5002  2160 -347.68085   54    2 -332.15499 -435.31721  31.1%  67.9 3486s
  5036  2168     cutoff   64      -332.15499 -435.30529  31.1%  67.8 3498s
  5079  2202     cutoff   63      -332.15499 -435.30060  31.1%  67.8 3571s
  5153  2254 -355.70326   53    2 -332.15499 -435.28435  31.0%  67.9 3655s
  5229  2310     cutoff   64      -332.15499 -435.17602  31.0%  68.1 3746s
  5311  2330     cutoff   32      -332.15499 -435.12488  31.0%  67.9 3773s
  5368  2375 -370.63435   63    2 -332.15499 -435.04938  31.0%  67.8 3874s
  5410  2387 -348.40139   51    2 -332.15499 -434.92566  30.9%  67.8 3892s
  5471  2453     cutoff   33      -332.15499 -434.91600  30.9%  67.7 3989s
  5566  2523 -402.18831   52    2 -332.15499 -434.90033  30.9%  67.5 4081s
  5687  2575 -369.00341   62    2 -332.15499 -434.74605  30.9%  67.4 4206s
  5807  2639 -366.17687   63    2 -332.15499 -434.72044  30.9%  67.5 4349s
  5879  2656 -371.24002   63    2 -332.15499 -434.69188  30.9%  67.5 4375s
  5933  2750     cutoff   55      -332.15499 -434.67732  30.9%  67.6 4489s
  6001  2760     cutoff   29      -332.15499 -434.65608  30.9%  67.4 4505s
  6063  2832     cutoff   64      -332.15499 -434.64811  30.9%  67.3 4607s
  6159  2880     cutoff   63      -332.15499 -434.54855  30.8%  67.2 4710s
  6228  2901 -341.87601   63    2 -332.15499 -434.53165  30.8%  67.1 4739s
  6305  2980     cutoff   64      -332.15499 -434.49177  30.8%  66.9 4855s
  6353  2990     cutoff   64      -332.15499 -434.45076  30.8%  67.0 4870s
  6418  3036     cutoff   63      -332.15499 -434.40374  30.8%  66.9 4991s
  6475  3049 -372.54495   62    2 -332.15499 -434.29412  30.8%  66.9 5012s
  6547  3113 -408.60055   37    2 -332.15499 -434.24199  30.7%  66.8 5139s
  6629  3145 -370.38834   63    2 -332.15499 -434.24199  30.7%  66.7 5184s
  6686  3193 -407.98604   47    2 -332.15499 -434.22530  30.7%  66.6 5286s
  6760  3208     cutoff   64      -332.15499 -434.14544  30.7%  66.6 5306s
  6816  3281 -373.97439   61    2 -332.15499 -434.10202  30.7%  66.7 5421s
  6893  3297 -379.22833   57    2 -332.15499 -434.08814  30.7%  66.6 5446s
  6946  3353 -369.75184   63    2 -332.15499 -434.05512  30.7%  66.5 5557s
  7018  3369 -369.02216   63    2 -332.15499 -433.95323  30.6%  66.4 5581s
  7072  3411     cutoff   64      -332.15499 -433.90260  30.6%  66.5 5699s
  7180  3483     cutoff   64      -332.15499 -433.74642  30.6%  66.6 5849s
  7233  3502     cutoff   64      -332.15499 -433.73077  30.6%  66.8 5880s
  7289  3539     cutoff   63      -332.15499 -433.71466  30.6%  66.8 6001s
  7338  3548     cutoff   63      -332.15499 -433.68073  30.6%  66.8 6018s
  7415  3635 -341.03437   62    3 -332.15499 -433.66754  30.6%  66.7 6160s
  7538  3702     cutoff   64      -332.15499 -433.58261  30.5%  66.6 6312s
  7670  3784     cutoff   56      -332.15499 -433.50978  30.5%  66.6 6473s
  7787  3845     cutoff   64      -332.15499 -433.42620  30.5%  66.6 6641s
  7839  3857     cutoff   40      -332.15499 -433.27480  30.4%  66.7 6661s
  7918  3930 -376.80679   52    3 -332.15499 -433.27468  30.4%  66.6 6811s
  8034  4003 -366.42049   63    2 -332.15499 -433.23741  30.4%  66.7 6968s
  8107  4025     cutoff   64      -332.15499 -433.19401  30.4%  66.6 6999s
  8164  4090 -404.02469   41    4 -332.15499 -433.18805  30.4%  66.6 7113s
  8207  4097     cutoff   61      -332.15499 -433.13244  30.4%  66.6 7124s
  8275  4104     cutoff   63      -332.15499 -433.08198  30.4%  66.6 7167s

Cutting planes:
  MIR: 462
  Flow cover: 126
  Lazy constraints: 310766

Explored 8291 nodes (561903 simplex iterations) in 7175.35 seconds
Thread count was 4 (of 4 available processors)

Solution count 8: -332.155 -324.8 -322.12 ... -232.564

Time limit reached
Best objective -3.321549909217e+02, best bound -4.330630451514e+02, gap 30.3798%

User-callback calls 207106, time in user-callback 2716.65 sec
